19134.87,36.4,41.35
17670.56,39.41,44.77
20847.87,33.41,37.95
18094.3,38.49,43.72
16989.2,40.99,46.57
19276.02,36.13,41.04
19606.79,35.52,40.35
19228.99,36.22,41.14
18347.85,37.96,43.12
19099.97,36.46,41.42
19181.67,36.31,41.24
19179.09,36.31,41.25
21271.34,32.74,37.19
17810.32,39.1,44.42
19328.01,36.03,40.93
17926.17,38.85,44.13
19429.78,35.84,40.72
18311.27,38.03,43.2
21461.52,32.45,36.86
18658.22,37.33,42.4
